&input
	fildyn = 'nacl.dyn'
	zasr = 'simple'
	flfrc = 'nacl.k444.fc'
/
