
Phonon calculation at the Gamma point for structure verification.
&inputph
  outdir = './wavefunctions'
  prefix = 'nacl',
  tr2_ph = 1.0d-14
  amass(1) = 22.989769
  amass(2) = 35.453
  fildyn = 'nacl.dyn'

/
0 0 0 
