
Phonon calculation at the Gamma point for structure verification.
&inputph
  outdir = './wavefunctions'
  prefix = 'cu',
  tr2_ph = 1.0d-14
  amass(1) = 63.546
  fildyn = 'cu.dyn'

/
0 0 0 
