

&control    
    calculation = 'scf' 
    restart_mode ='from_scratch'
    prefix = 'cu'
    outdir = './wavefunctions'
    pseudo_dir = './'
/
&system
   
    ibrav=2,
    celldm(1) =6.831453935, 
    nat=1, ntyp=1,
    occupations='smearing',
    smearing='m-p', 
    degauss=0.02D0,
    ecutwfc=50 
/
&electrons
    conv_thr=1e-10
/
ATOMIC_SPECIES
   Cu 63.546 Cu.pbe-dn-kjpaw_psl.0.2.UPF
ATOMIC_POSITIONS (crystal)
Cu 0.00 0.00 0.00                                   
K_POINTS (automatic)
  
 6 6 6 0 0 0
