&input
	fildyn = 'cu.dyn'
	zasr = 'simple'
	flfrc = 'cu.k444.fc'
/
