
Phonon calculation at the Gamma point for structure verification.
&inputph
  outdir = './wavefunctions'
  prefix = 'si',
  tr2_ph = 1.0d-14
  amass(1) = 28.0855
  fildyn = 'si.dyn'
/
0 0 0 
